20200116 71300.00 35100.00
20171231 47400.00 21500.00
20170925 47385.71 21601.08
20170811 45899.45 21454.59
20170714 42280.55 21454.59
20161231 21601.08 21454.59
20160630 21601.08 21454.59
20151231 21601.08 21601.08
20150630 21601.08 21601.08
